data/mps_files/q3/121_7.mps
NAME foo
ROWS
 N  OBJ
 E  allocateEach[1]
 E  allocateAllCash
 G  findWorstP[1,2]
 G  findWorstP[1,3]
 G  findWorstP[1,4]
 G  findWorstP[1,5]
 G  findWorstP[1,6]
 G  findWorstP[1,7]
 G  findWorstP[2,1]
 G  findWorstP[2,3]
 G  findWorstP[2,4]
 G  findWorstP[2,5]
 G  findWorstP[2,6]
 G  findWorstP[2,7]
 G  findWorstP[3,1]
 G  findWorstP[3,2]
 G  findWorstP[3,4]
 G  findWorstP[3,5]
 G  findWorstP[3,6]
 G  findWorstP[3,7]
 G  findWorstP[4,1]
 G  findWorstP[4,2]
 G  findWorstP[4,3]
 G  findWorstP[4,5]
 G  findWorstP[4,6]
 G  findWorstP[4,7]
 G  findWorstP[5,1]
 G  findWorstP[5,2]
 G  findWorstP[5,3]
 G  findWorstP[5,4]
 G  findWorstP[5,6]
 G  findWorstP[5,7]
 G  findWorstP[6,1]
 G  findWorstP[6,2]
 G  findWorstP[6,3]
 G  findWorstP[6,4]
 G  findWorstP[6,5]
 G  findWorstP[6,7]
 G  findWorstP[7,1]
 G  findWorstP[7,2]
 G  findWorstP[7,3]
 G  findWorstP[7,4]
 G  findWorstP[7,5]
 G  findWorstP[7,6]
COLUMNS
    z         OBJ       1
    z         findWorstP[1,2]  1
    z         findWorstP[1,3]  1
    z         findWorstP[1,4]  1
    z         findWorstP[1,5]  1
    z         findWorstP[1,6]  1
    z         findWorstP[1,7]  1
    z         findWorstP[2,1]  1
    z         findWorstP[2,3]  1
    z         findWorstP[2,4]  1
    z         findWorstP[2,5]  1
    z         findWorstP[2,6]  1
    z         findWorstP[2,7]  1
    z         findWorstP[3,1]  1
    z         findWorstP[3,2]  1
    z         findWorstP[3,4]  1
    z         findWorstP[3,5]  1
    z         findWorstP[3,6]  1
    z         findWorstP[3,7]  1
    z         findWorstP[4,1]  1
    z         findWorstP[4,2]  1
    z         findWorstP[4,3]  1
    z         findWorstP[4,5]  1
    z         findWorstP[4,6]  1
    z         findWorstP[4,7]  1
    z         findWorstP[5,1]  1
    z         findWorstP[5,2]  1
    z         findWorstP[5,3]  1
    z         findWorstP[5,4]  1
    z         findWorstP[5,6]  1
    z         findWorstP[5,7]  1
    z         findWorstP[6,1]  1
    z         findWorstP[6,2]  1
    z         findWorstP[6,3]  1
    z         findWorstP[6,4]  1
    z         findWorstP[6,5]  1
    z         findWorstP[6,7]  1
    z         findWorstP[7,1]  1
    z         findWorstP[7,2]  1
    z         findWorstP[7,3]  1
    z         findWorstP[7,4]  1
    z         findWorstP[7,5]  1
    z         findWorstP[7,6]  1
    cashProportion[1]  allocateAllCash  1
    cashProportion[1]  findWorstP[1,2]  5.0662838807734523e-01
    cashProportion[1]  findWorstP[1,3]  5.0662838807734523e-01
    cashProportion[1]  findWorstP[1,4]  5.0662838807734523e-01
    cashProportion[1]  findWorstP[1,5]  5.0662838807734523e-01
    cashProportion[1]  findWorstP[1,6]  5.0662838807734523e-01
    cashProportion[1]  findWorstP[1,7]  5.0662838807734523e-01
    cashProportion[1]  findWorstP[2,1]  -5.3990821560334756e-01
    cashProportion[1]  findWorstP[3,1]  -0.391696043869957
    cashProportion[1]  findWorstP[4,1]  -6.0030015007503756e-01
    cashProportion[1]  findWorstP[5,1]  -4.1211621677313004e-01
    cashProportion[1]  findWorstP[6,1]  -4.4656147662994944e-01
    cashProportion[1]  findWorstP[7,1]  -9.4176738345628630e-01
    cashProportion[2]  allocateAllCash  1
    cashProportion[2]  findWorstP[1,2]  -5.0662838807734523e-01
    cashProportion[2]  findWorstP[2,1]  5.3990821560334756e-01
    cashProportion[2]  findWorstP[2,3]  5.3990821560334756e-01
    cashProportion[2]  findWorstP[2,4]  5.3990821560334756e-01
    cashProportion[2]  findWorstP[2,5]  5.3990821560334756e-01
    cashProportion[2]  findWorstP[2,6]  5.3990821560334756e-01
    cashProportion[2]  findWorstP[2,7]  5.3990821560334756e-01
    cashProportion[2]  findWorstP[3,2]  -0.391696043869957
    cashProportion[2]  findWorstP[4,2]  -6.0030015007503756e-01
    cashProportion[2]  findWorstP[5,2]  -4.1211621677313004e-01
    cashProportion[2]  findWorstP[6,2]  -4.4656147662994944e-01
    cashProportion[2]  findWorstP[7,2]  -9.4176738345628630e-01
    cashProportion[3]  allocateAllCash  1
    cashProportion[3]  findWorstP[1,3]  -5.0662838807734523e-01
    cashProportion[3]  findWorstP[2,3]  -5.3990821560334756e-01
    cashProportion[3]  findWorstP[3,1]  0.391696043869957
    cashProportion[3]  findWorstP[3,2]  0.391696043869957
    cashProportion[3]  findWorstP[3,4]  0.391696043869957
    cashProportion[3]  findWorstP[3,5]  0.391696043869957
    cashProportion[3]  findWorstP[3,6]  0.391696043869957
    cashProportion[3]  findWorstP[3,7]  0.391696043869957
    cashProportion[3]  findWorstP[4,3]  -6.0030015007503756e-01
    cashProportion[3]  findWorstP[5,3]  -4.1211621677313004e-01
    cashProportion[3]  findWorstP[6,3]  -4.4656147662994944e-01
    cashProportion[3]  findWorstP[7,3]  -9.4176738345628630e-01
    cashProportion[4]  allocateAllCash  1
    cashProportion[4]  findWorstP[1,4]  -5.0662838807734523e-01
    cashProportion[4]  findWorstP[2,4]  -5.3990821560334756e-01
    cashProportion[4]  findWorstP[3,4]  -0.391696043869957
    cashProportion[4]  findWorstP[4,1]  6.0030015007503756e-01
    cashProportion[4]  findWorstP[4,2]  6.0030015007503756e-01
    cashProportion[4]  findWorstP[4,3]  6.0030015007503756e-01
    cashProportion[4]  findWorstP[4,5]  6.0030015007503756e-01
    cashProportion[4]  findWorstP[4,6]  6.0030015007503756e-01
    cashProportion[4]  findWorstP[4,7]  6.0030015007503756e-01
    cashProportion[4]  findWorstP[5,4]  -4.1211621677313004e-01
    cashProportion[4]  findWorstP[6,4]  -4.4656147662994944e-01
    cashProportion[4]  findWorstP[7,4]  -9.4176738345628630e-01
    cashProportion[5]  allocateAllCash  1
    cashProportion[5]  findWorstP[1,5]  -5.0662838807734523e-01
    cashProportion[5]  findWorstP[2,5]  -5.3990821560334756e-01
    cashProportion[5]  findWorstP[3,5]  -0.391696043869957
    cashProportion[5]  findWorstP[4,5]  -6.0030015007503756e-01
    cashProportion[5]  findWorstP[5,1]  4.1211621677313004e-01
    cashProportion[5]  findWorstP[5,2]  4.1211621677313004e-01
    cashProportion[5]  findWorstP[5,3]  4.1211621677313004e-01
    cashProportion[5]  findWorstP[5,4]  4.1211621677313004e-01
    cashProportion[5]  findWorstP[5,6]  4.1211621677313004e-01
    cashProportion[5]  findWorstP[5,7]  4.1211621677313004e-01
    cashProportion[5]  findWorstP[6,5]  -4.4656147662994944e-01
    cashProportion[5]  findWorstP[7,5]  -9.4176738345628630e-01
    cashProportion[6]  allocateAllCash  1
    cashProportion[6]  findWorstP[1,6]  -5.0662838807734523e-01
    cashProportion[6]  findWorstP[2,6]  -5.3990821560334756e-01
    cashProportion[6]  findWorstP[3,6]  -0.391696043869957
    cashProportion[6]  findWorstP[4,6]  -6.0030015007503756e-01
    cashProportion[6]  findWorstP[5,6]  -4.1211621677313004e-01
    cashProportion[6]  findWorstP[6,1]  4.4656147662994944e-01
    cashProportion[6]  findWorstP[6,2]  4.4656147662994944e-01
    cashProportion[6]  findWorstP[6,3]  4.4656147662994944e-01
    cashProportion[6]  findWorstP[6,4]  4.4656147662994944e-01
    cashProportion[6]  findWorstP[6,5]  4.4656147662994944e-01
    cashProportion[6]  findWorstP[6,7]  4.4656147662994944e-01
    cashProportion[6]  findWorstP[7,6]  -9.4176738345628630e-01
    cashProportion[7]  allocateAllCash  1
    cashProportion[7]  findWorstP[1,7]  -5.0662838807734523e-01
    cashProportion[7]  findWorstP[2,7]  -5.3990821560334756e-01
    cashProportion[7]  findWorstP[3,7]  -0.391696043869957
    cashProportion[7]  findWorstP[4,7]  -6.0030015007503756e-01
    cashProportion[7]  findWorstP[5,7]  -4.1211621677313004e-01
    cashProportion[7]  findWorstP[6,7]  -4.4656147662994944e-01
    cashProportion[7]  findWorstP[7,1]  9.4176738345628630e-01
    cashProportion[7]  findWorstP[7,2]  9.4176738345628630e-01
    cashProportion[7]  findWorstP[7,3]  9.4176738345628630e-01
    cashProportion[7]  findWorstP[7,4]  9.4176738345628630e-01
    cashProportion[7]  findWorstP[7,5]  9.4176738345628630e-01
    cashProportion[7]  findWorstP[7,6]  9.4176738345628630e-01
    MARKER    'MARKER'                 'INTORG'
    x[1,1]    allocateEach[1]  1
    x[1,1]    findWorstP[1,2]  4.9337161192265472e-01
    x[1,1]    findWorstP[1,3]  4.9337161192265472e-01
    x[1,1]    findWorstP[1,4]  4.9337161192265472e-01
    x[1,1]    findWorstP[1,5]  4.9337161192265472e-01
    x[1,1]    findWorstP[1,6]  4.9337161192265472e-01
    x[1,1]    findWorstP[1,7]  4.9337161192265472e-01
    x[1,1]    findWorstP[2,1]  -4.6009178439665255e-01
    x[1,1]    findWorstP[3,1]  -6.0830395613004307e-01
    x[1,1]    findWorstP[4,1]  -3.9969984992496244e-01
    x[1,1]    findWorstP[5,1]  -0.58788378322687
    x[1,1]    findWorstP[6,1]  -5.5343852337005062e-01
    x[1,1]    findWorstP[7,1]  -5.8232616543713693e-02
    x[2,1]    allocateEach[1]  1
    x[2,1]    findWorstP[1,2]  -4.9337161192265472e-01
    x[2,1]    findWorstP[2,1]  4.6009178439665255e-01
    x[2,1]    findWorstP[2,3]  4.6009178439665255e-01
    x[2,1]    findWorstP[2,4]  4.6009178439665255e-01
    x[2,1]    findWorstP[2,5]  4.6009178439665255e-01
    x[2,1]    findWorstP[2,6]  4.6009178439665255e-01
    x[2,1]    findWorstP[2,7]  4.6009178439665255e-01
    x[2,1]    findWorstP[3,2]  -6.0830395613004307e-01
    x[2,1]    findWorstP[4,2]  -3.9969984992496244e-01
    x[2,1]    findWorstP[5,2]  -0.58788378322687
    x[2,1]    findWorstP[6,2]  -5.5343852337005062e-01
    x[2,1]    findWorstP[7,2]  -5.8232616543713693e-02
    x[3,1]    allocateEach[1]  1
    x[3,1]    findWorstP[1,3]  -4.9337161192265472e-01
    x[3,1]    findWorstP[2,3]  -4.6009178439665255e-01
    x[3,1]    findWorstP[3,1]  6.0830395613004307e-01
    x[3,1]    findWorstP[3,2]  6.0830395613004307e-01
    x[3,1]    findWorstP[3,4]  6.0830395613004307e-01
    x[3,1]    findWorstP[3,5]  6.0830395613004307e-01
    x[3,1]    findWorstP[3,6]  6.0830395613004307e-01
    x[3,1]    findWorstP[3,7]  6.0830395613004307e-01
    x[3,1]    findWorstP[4,3]  -3.9969984992496244e-01
    x[3,1]    findWorstP[5,3]  -0.58788378322687
    x[3,1]    findWorstP[6,3]  -5.5343852337005062e-01
    x[3,1]    findWorstP[7,3]  -5.8232616543713693e-02
    x[4,1]    allocateEach[1]  1
    x[4,1]    findWorstP[1,4]  -4.9337161192265472e-01
    x[4,1]    findWorstP[2,4]  -4.6009178439665255e-01
    x[4,1]    findWorstP[3,4]  -6.0830395613004307e-01
    x[4,1]    findWorstP[4,1]  3.9969984992496244e-01
    x[4,1]    findWorstP[4,2]  3.9969984992496244e-01
    x[4,1]    findWorstP[4,3]  3.9969984992496244e-01
    x[4,1]    findWorstP[4,5]  3.9969984992496244e-01
    x[4,1]    findWorstP[4,6]  3.9969984992496244e-01
    x[4,1]    findWorstP[4,7]  3.9969984992496244e-01
    x[4,1]    findWorstP[5,4]  -0.58788378322687
    x[4,1]    findWorstP[6,4]  -5.5343852337005062e-01
    x[4,1]    findWorstP[7,4]  -5.8232616543713693e-02
    x[5,1]    allocateEach[1]  1
    x[5,1]    findWorstP[1,5]  -4.9337161192265472e-01
    x[5,1]    findWorstP[2,5]  -4.6009178439665255e-01
    x[5,1]    findWorstP[3,5]  -6.0830395613004307e-01
    x[5,1]    findWorstP[4,5]  -3.9969984992496244e-01
    x[5,1]    findWorstP[5,1]  0.58788378322687
    x[5,1]    findWorstP[5,2]  0.58788378322687
    x[5,1]    findWorstP[5,3]  0.58788378322687
    x[5,1]    findWorstP[5,4]  0.58788378322687
    x[5,1]    findWorstP[5,6]  0.58788378322687
    x[5,1]    findWorstP[5,7]  0.58788378322687
    x[5,1]    findWorstP[6,5]  -5.5343852337005062e-01
    x[5,1]    findWorstP[7,5]  -5.8232616543713693e-02
    x[6,1]    allocateEach[1]  1
    x[6,1]    findWorstP[1,6]  -4.9337161192265472e-01
    x[6,1]    findWorstP[2,6]  -4.6009178439665255e-01
    x[6,1]    findWorstP[3,6]  -6.0830395613004307e-01
    x[6,1]    findWorstP[4,6]  -3.9969984992496244e-01
    x[6,1]    findWorstP[5,6]  -0.58788378322687
    x[6,1]    findWorstP[6,1]  5.5343852337005062e-01
    x[6,1]    findWorstP[6,2]  5.5343852337005062e-01
    x[6,1]    findWorstP[6,3]  5.5343852337005062e-01
    x[6,1]    findWorstP[6,4]  5.5343852337005062e-01
    x[6,1]    findWorstP[6,5]  5.5343852337005062e-01
    x[6,1]    findWorstP[6,7]  5.5343852337005062e-01
    x[6,1]    findWorstP[7,6]  -5.8232616543713693e-02
    x[7,1]    allocateEach[1]  1
    x[7,1]    findWorstP[1,7]  -4.9337161192265472e-01
    x[7,1]    findWorstP[2,7]  -4.6009178439665255e-01
    x[7,1]    findWorstP[3,7]  -6.0830395613004307e-01
    x[7,1]    findWorstP[4,7]  -3.9969984992496244e-01
    x[7,1]    findWorstP[5,7]  -0.58788378322687
    x[7,1]    findWorstP[6,7]  -5.5343852337005062e-01
    x[7,1]    findWorstP[7,1]  5.8232616543713693e-02
    x[7,1]    findWorstP[7,2]  5.8232616543713693e-02
    x[7,1]    findWorstP[7,3]  5.8232616543713693e-02
    x[7,1]    findWorstP[7,4]  5.8232616543713693e-02
    x[7,1]    findWorstP[7,5]  5.8232616543713693e-02
    x[7,1]    findWorstP[7,6]  5.8232616543713693e-02
    MARKER    'MARKER'                 'INTEND'
RHS
    RHS1      allocateEach[1]  1
    RHS1      allocateAllCash  1
BOUNDS
 UP BND1      z         1
 MI BND1      cashProportion[1]
 UP BND1      cashProportion[1]  1
 MI BND1      cashProportion[2]
 UP BND1      cashProportion[2]  1
 MI BND1      cashProportion[3]
 UP BND1      cashProportion[3]  1
 MI BND1      cashProportion[4]
 UP BND1      cashProportion[4]  1
 MI BND1      cashProportion[5]
 UP BND1      cashProportion[5]  1
 MI BND1      cashProportion[6]
 UP BND1      cashProportion[6]  1
 MI BND1      cashProportion[7]
 UP BND1      cashProportion[7]  1
 BV BND1      x[1,1]  
 BV BND1      x[2,1]  
 BV BND1      x[3,1]  
 BV BND1      x[4,1]  
 BV BND1      x[5,1]  
 BV BND1      x[6,1]  
 BV BND1      x[7,1]  
ENDATA
